unsat
(forall ((A (_ BitVec 1))
         (B (_ BitVec 1))
         (C (_ BitVec 1))
         (D (_ BitVec 2))
         (E (_ BitVec 2))
         (F (_ BitVec 3))
         (G (_ BitVec 1))
         (H (_ BitVec 1))
         (I (_ BitVec 1))
         (J (_ BitVec 2))
         (K (_ BitVec 1))
         (L (_ BitVec 1))
         (M (_ BitVec 1))
         (N (_ BitVec 1))
         (O (_ BitVec 1))
         (P (_ BitVec 1))
         (Q (_ BitVec 1))
         (R (_ BitVec 1))
         (S (_ BitVec 1))
         (T (_ BitVec 2))
         (U (_ BitVec 1))
         (V (_ BitVec 1))
         (W (_ BitVec 2))
         (X (_ BitVec 1))
         (Y (_ BitVec 2))
         (Z (_ BitVec 2))
         (A1 (_ BitVec 1))
         (B1 (_ BitVec 2))
         (C1 (_ BitVec 1))
         (D1 (_ BitVec 1))
         (E1 (_ BitVec 1))
         (F1 (_ BitVec 1))
         (G1 (_ BitVec 3))
         (H1 (_ BitVec 3))
         (I1 (_ BitVec 3))
         (J1 (_ BitVec 2))
         (K1 (_ BitVec 2))
         (L1 (_ BitVec 1))
         (M1 (_ BitVec 1))
         (N1 (_ BitVec 2))
         (O1 (_ BitVec 2))
         (P1 (_ BitVec 1))
         (Q1 (_ BitVec 1))
         (R1 (_ BitVec 1))
         (S1 (_ BitVec 1))
         (T1 (_ BitVec 2))
         (U1 (_ BitVec 2))
         (V1 (_ BitVec 1))
         (W1 (_ BitVec 1))
         (X1 (_ BitVec 1))
         (Y1 (_ BitVec 1))
         (Z1 (_ BitVec 1))
         (A2 (_ BitVec 1))
         (B2 (_ BitVec 1))
         (C2 (_ BitVec 1))
         (D2 (_ BitVec 1))
         (E2 (_ BitVec 1))
         (F2 (_ BitVec 1))
         (G2 (_ BitVec 3))
         (H2 (_ BitVec 1))
         (I2 (_ BitVec 1))
         (J2 (_ BitVec 1))
         (K2 (_ BitVec 32))
         (L2 (_ BitVec 1))
         (M2 (_ BitVec 2))
         (N2 (_ BitVec 1))
         (O2 (_ BitVec 1))
         (P2 (_ BitVec 1))
         (Q2 (_ BitVec 1))
         (R2 (_ BitVec 1))
         (S2 (_ BitVec 32))
         (T2 (_ BitVec 1))
         (U2 (_ BitVec 1))
         (V2 (_ BitVec 1))
         (W2 (_ BitVec 2))
         (X2 (_ BitVec 2))
         (Y2 (_ BitVec 1))
         (Z2 (_ BitVec 2))
         (A3 (_ BitVec 2))
         (B3 (_ BitVec 1))
         (C3 (_ BitVec 1))
         (D3 (_ BitVec 1))
         (E3 (_ BitVec 1))
         (F3 (_ BitVec 1))
         (G3 (_ BitVec 1))
         (H3 (_ BitVec 1))
         (I3 (_ BitVec 2))
         (J3 (_ BitVec 2))
         (K3 (_ BitVec 1))
         (L3 (_ BitVec 1)))
  (! (let ((a!1 (or (not (= E1 #b1))
                    (not (= ((_ extract 0 0) T) #b1))
                    (= ((_ extract 0 0) E) #b1)))
           (a!2 (or (not (= E1 #b1))
                    ((_ bit2bool 0) B1)
                    (not (= ((_ extract 0 0) J) #b1))))
           (a!3 (or (not (= E1 #b1))
                    (not (= B1 #b01))
                    (not (= ((_ extract 1 1) J) #b1))))
           (a!4 (or (not (= E1 #b1))
                    (= ((_ extract 1 1) Z) #b1)
                    (not (= ((_ extract 1 1) W) #b1))))
           (a!5 (or (not (= E1 #b1))
                    (not (= K #b0))
                    (not (= N #b1))
                    (not (= ((_ extract 0 0) B1) #b1))
                    (= ((_ extract 0 0) J) #b1)))
           (a!6 (or (not (= E1 #b1))
                    (not (= ((_ extract 0 0) B1) #b1))
                    (= ((_ extract 0 0) J) #b1)
                    (not (= ((_ extract 0 0) F) #b1))))
           (a!7 (or (not (= E1 #b1))
                    (= ((_ extract 1 1) G1) #b1)
                    (not (= ((_ extract 1 1) F) #b1))))
           (a!8 (or (not (= E1 #b1))
                    (= ((_ extract 0 0) W) #b1)
                    (not (= ((_ extract 0 0) Z) #b1))
                    (not (= ((_ extract 0 0) B1) #b1))))
           (a!9 (or (not (= E1 #b1))
                    (not (= ((_ extract 0 0) B1) #b1))
                    (= ((_ extract 0 0) J) #b1)
                    (not (= V #b1))))
           (a!10 (or (not (= E1 #b1))
                     (not (= ((_ extract 1 1) G1) #b1))
                     (= ((_ extract 1 1) F) #b1)))
           (a!11 (or (not (= E1 #b1))
                     (not (= ((_ extract 0 0) G1) #b1))
                     (= ((_ extract 0 0) F) #b1)))
           (a!12 (or (not (= E1 #b1))
                     (not (= Q #b0))
                     (not (= B #b1))
                     (not (= ((_ extract 0 0) G1) #b1))))
           (a!13 (or (not (= E1 #b1))
                     (not (= ((_ extract 2 2) G1) #b1))
                     (= ((_ extract 2 2) F) #b1)))
           (a!14 (or (not (= E1 #b1))
                     (= ((_ extract 0 0) G1) #b1)
                     (not (= ((_ extract 0 0) F) #b1))))
           (a!15 (or (not (= B #b0))
                     (not (= E1 #b1))
                     (not (= Q #b1))
                     (not (= ((_ extract 0 0) F) #b1))))
           (a!16 (or (not (= E1 #b1))
                     (not (= N #b1))
                     (= ((_ extract 1 1) B1) #b1)
                     (not (= ((_ extract 1 1) J) #b1))))
           (a!17 (or ((_ bit2bool 0) J)
                     (not (= E1 #b1))
                     (not (= G1 #b100))
                     (not (= ((_ extract 0 0) B1) #b1))))
           (a!18 (or (not (= E1 #b1))
                     (= F #b111)
                     (= ((_ extract 1 1) B1) #b1)
                     (not (= ((_ extract 1 1) J) #b1))
                     (not (= B #b1))))
           (a!19 (or (not (= E1 #b1))
                     (not (= F #b100))
                     (= ((_ extract 1 1) B1) #b1)
                     (not (= ((_ extract 1 1) J) #b1))))
           (a!20 (or (not (= E #b00))
                     (not (= E1 #b1))
                     (not (= ((_ extract 1 1) T) #b1))))
           (a!21 (or (not (= E1 #b1))
                     (= ((_ extract 1 1) T) #b1)
                     (not (= ((_ extract 1 1) E) #b1))))
           (a!22 (or (= ((_ extract 1 1) D) #b1)
                     (not (= E1 #b1))
                     (not (= ((_ extract 1 1) Y) #b1))))
           (a!23 (or (= ((_ extract 0 0) D) #b1)
                     (not (= E1 #b1))
                     (not (= ((_ extract 0 0) Y) #b1))))
           (a!24 (or (not (= B #b0))
                     (not (= E1 #b1))
                     (not (= Q #b1))
                     (= ((_ extract 0 0) G1) #b1)
                     (not (= ((_ extract 1 1) F) #b1))))
           (a!25 (or (not (= E1 #b1))
                     (= ((_ extract 0 0) T) #b1)
                     (not (= ((_ extract 0 0) E) #b1))))
           (a!26 (or (not (= E1 #b1))
                     ((_ bit2bool 1) Y)
                     (not (= ((_ extract 1 1) D) #b1))))
           (a!27 (or (= A #b1)
                     (= G #b0)
                     (not (= E1 #b1))
                     (not (= E #b11))
                     (= ((_ extract 2 2) G1) #b1)
                     (not (= ((_ extract 2 2) F) #b1))))
           (a!28 (or (not (= E1 #b1))
                     (= G1 #b101)
                     (= G1 #b111)
                     (= G1 #b011)
                     (= G1 #b001)
                     (not (= ((_ extract 0 0) F) #b1))))
           (a!29 (or (not (= B #b0))
                     (not (= E1 #b1))
                     (not (= C #b0))
                     (not (= K #b0))
                     (not (= F #b100))
                     (= ((_ extract 2 2) G1) #b1)
                     (not (= ((_ extract 1 1) E) #b1))))
           (a!30 (or (not (= E1 #b1))
                     (= G1 #b111)
                     (not (= Q #b1))
                     (not (= ((_ extract 0 0) B1) #b1))
                     (= ((_ extract 0 0) J) #b1)))
           (a!31 (or (not (= B #b0))
                     (not (= E1 #b1))
                     (= Y #b10)
                     (not (= ((_ extract 0 0) B1) #b1))
                     (= ((_ extract 0 0) J) #b1)
                     (not (= ((_ extract 0 0) T) #b1))))
           (a!32 (or (not (= E1 #b1))
                     (not (= ((_ extract 0 0) B1) #b1))
                     (= ((_ extract 0 0) J) #b1)
                     (not (= F1 #b1)))))
     (let ((a!33 (and a!1
                      (= R #b1)
                      (or (not (= D1 #b1)) (not (= H #b0)) (= E1 #b0))
                      (or (= E1 #b0) (= J #b01) (not (= B1 #b01)))
                      (or (not (= E1 #b1)) (= J #b10) (not (= B1 #b10)))
                      a!2
                      (or (= E1 #b0) (= J #b11) (not (= B1 #b11)))
                      (or (= E1 #b0) (not (= L #b0)) (not (= P #b1)))
                      (or (not (= E1 #b1)) (= W #b11) (not (= Z #b11)))
                      (or (not (= I #b0)) (not (= E1 #b1)) (not (= C1 #b1)))
                      a!3
                      a!4
                      (or (not (= E1 #b1)) (= W #b10) (not (= Z #b10)))
                      (or (not (= E1 #b1)) (= A1 U))
                      a!5
                      (or (not (= E1 #b1))
                          (not (= V #b0))
                          (= F #b100)
                          (not (= K #b1)))
                      (or (not (= E1 #b1))
                          (not (= O #b0))
                          (= F #b100)
                          (not (= N #b1)))
                      a!6
                      a!7
                      a!8
                      a!9
                      (or (not (= E1 #b1))
                          (= G1 #b100)
                          (= G1 #b101)
                          (= G1 #b111)
                          (= G1 #b110)
                          (not ((_ bit2bool 2) F)))
                      (or (= I #b0) (not (= E1 #b1)) (not (= C1 #b0)))
                      (or (not (= F1 #b0)) (not (= E1 #b1)) (not (= C #b1)))
                      (or (= D1 #b1) (not (= E1 #b1)) (not (= H #b1)))
                      a!10
                      a!11
                      a!12
                      (or (not (= E1 #b1)) (not (= S #b0)) (not (= G #b1)))
                      a!13
                      a!14
                      (or (not (= E1 #b1))
                          (not (= O #b0))
                          (not (= N #b1))
                          (= ((_ extract 0 0) G1) #b1))
                      (or (not (= E1 #b1))
                          (= F #b000)
                          ((_ bit2bool 1) F)
                          (= G1 #b100)
                          ((_ bit2bool 0) F))
                      (or (not (= E1 #b1))
                          (not (= K #b0))
                          (= G1 #b100)
                          (not (= V #b1)))
                      (or (not (= E1 #b1))
                          (= T #b10)
                          (= T #b01)
                          (not (= E #b01)))
                      (or (not (= E1 #b1))
                          (not (= V #b0))
                          (not (= K #b1))
                          (= ((_ extract 1 1) G1) #b1))
                      a!15
                      (or (not (= E1 #b1))
                          (not (= Q #b0))
                          (= F #b111)
                          (not (= B #b1)))
                      (or (not (= E1 #b1)) (= E #b10) (not (= T #b10)))
                      (or (not (= E1 #b1))
                          (not (= K #b0))
                          (not (= V #b1))
                          (= ((_ extract 1 1) F) #b1))
                      (or (not (= E1 #b1)) (not (= P #b0)) (not (= L #b1)))
                      (or (not (= E1 #b1))
                          (not (= F #b101))
                          (= ((_ extract 2 2) G1) #b1))
                      (or (= N #b1)
                          (not (= E1 #b1))
                          (= G1 #b100)
                          (not (= O #b1)))
                      (or (not (= E1 #b1))
                          (= G1 #b100)
                          (= B1 #b10)
                          (not (= J #b10)))
                      a!16
                      a!17
                      a!18
                      (or (= N #b1)
                          (not (= E1 #b1))
                          (not (= O #b1))
                          (not (= F #b100)))
                      a!19
                      a!20
                      a!21
                      a!22
                      a!23
                      (or (not (= B #b0))
                          (not (= E1 #b1))
                          (not (= Q #b1))
                          (= ((_ extract 1 1) G1) #b1))
                      (or (not (= S #b1)) (not (= E1 #b1)) (= G #b1))
                      (or (= A #b1) (not (= E1 #b1)) (not (= M #b1)))
                      a!24
                      (or (not (= E1 #b1)) (= D #b10) (not (= Y #b10)))
                      (or (not (= E1 #b1)) (not (= C #b0)) (not (= F1 #b1)))
                      a!25
                      a!26
                      a!27
                      (or (not (= E1 #b1)) (= F #b011) (not (= G1 #b011)))
                      (or (not (= A #b1)) (not (= M #b0)) (not (= E1 #b1)))
                      a!28
                      (or (not (= E1 #b1)) (= F #b010) (not (= G1 #b010)))
                      (or (not (= E1 #b1))
                          (= G1 #b010)
                          (= J #b01)
                          (= Z #b10)
                          (not (= F #b010))
                          (not (= D1 C1)))
                      a!29
                      (or (not (= E1 #b1))
                          (= G1 #b010)
                          (= B1 #b01)
                          (= Z #b10)
                          (not (= F #b010))
                          (not ((_ bit2bool 1) W)))
                      a!30
                      (or (not (= E1 #b1))
                          (not (= F #b100))
                          (not (= B #b1))
                          (= ((_ extract 2 2) G1) #b1))
                      a!31
                      a!32)))
       (= (INV!slice!1 A
                       B
                       C
                       D
                       E
                       F
                       G
                       H
                       I
                       J
                       K
                       L
                       M
                       N
                       O
                       P
                       Q
                       R
                       S
                       T
                       U
                       V
                       W
                       X
                       Y
                       Z
                       A1
                       B1
                       C1
                       D1
                       E1
                       F1
                       G1
                       H1
                       I1
                       J1
                       K1
                       L1
                       M1
                       N1
                       O1
                       P1
                       Q1
                       R1
                       S1
                       T1
                       U1
                       V1
                       W1
                       X1
                       Y1
                       Z1
                       A2
                       B2
                       C2
                       D2
                       E2
                       F2
                       G2
                       H2
                       I2
                       J2
                       K2
                       L2
                       M2
                       N2
                       O2
                       P2
                       Q2
                       R2
                       S2
                       T2
                       U2
                       V2
                       W2
                       X2
                       Y2
                       Z2
                       A3
                       B3
                       C3
                       D3
                       E3
                       F3
                       G3
                       H3
                       I3
                       J3
                       K3
                       L3)
          a!33)))
     :weight 0))
